NAME : A045-03f.1740.tour
COMMENT : Cost = 0_1740
COMMENT : Found by LKH [Keld Helsgaun] Tue Sep 12 09:35:12 2017
TYPE : TOUR
DIMENSION : 47
TOUR_SECTION
1
2
3
47
40
36
33
29
26
27
28
34
35
37
38
39
46
4
5
6
32
31
30
25
43
24
23
19
17
18
21
8
10
9
41
45
42
7
11
44
12
13
14
16
15
20
22
-1
EOF
